c CNF file corresponding to a (partial) station packing problem.
p cnf 3761 197
1 2 3 4 5 6 7 8 9 10 11 12 13 14 0
-1 -2 0
-1 -3 0
-1 -4 0
-1 -5 0
-1 -6 0
-1 -7 0
-1 -8 0
-1 -9 0
-1 -10 0
-1 -11 0
-1 -12 0
-1 -13 0
-1 -14 0
-2 -3 0
-2 -4 0
-2 -5 0
-2 -6 0
-2 -7 0
-2 -8 0
-2 -9 0
-2 -10 0
-2 -11 0
-2 -12 0
-2 -13 0
-2 -14 0
-3 -4 0
-3 -5 0
-3 -6 0
-3 -7 0
-3 -8 0
-3 -9 0
-3 -10 0
-3 -11 0
-3 -12 0
-3 -13 0
-3 -14 0
-4 -5 0
-4 -6 0
-4 -7 0
-4 -8 0
-4 -9 0
-4 -10 0
-4 -11 0
-4 -12 0
-4 -13 0
-4 -14 0
-5 -6 0
-5 -7 0
-5 -8 0
-5 -9 0
-5 -10 0
-5 -11 0
-5 -12 0
-5 -13 0
-5 -14 0
-6 -7 0
-6 -8 0
-6 -9 0
-6 -10 0
-6 -11 0
-6 -12 0
-6 -13 0
-6 -14 0
-7 -8 0
-7 -9 0
-7 -10 0
-7 -11 0
-7 -12 0
-7 -13 0
-7 -14 0
-8 -9 0
-8 -10 0
-8 -11 0
-8 -12 0
-8 -13 0
-8 -14 0
-9 -10 0
-9 -11 0
-9 -12 0
-9 -13 0
-9 -14 0
-10 -11 0
-10 -12 0
-10 -13 0
-10 -14 0
-11 -12 0
-11 -13 0
-11 -14 0
-12 -13 0
-12 -14 0
-13 -14 0
-3749 -3 0
-8 -3755 0
-3760 -13 0
-12 -3759 0
-3758 -11 0
-3753 -6 0
-1 -3748 0
-4 -3751 0
-3757 -10 0
-3752 -5 0
-9 -3756 0
-14 -3761 0
-7 -3754 0
3748 3749 3750 3751 3752 3753 3754 3755 3756 3757 3758 3759 3760 3761 0
-3748 -3749 0
-3748 -3750 0
-3748 -3751 0
-3748 -3752 0
-3748 -3753 0
-3748 -3754 0
-3748 -3755 0
-3748 -3756 0
-3748 -3757 0
-3748 -3758 0
-3748 -3759 0
-3748 -3760 0
-3748 -3761 0
-3749 -3750 0
-3749 -3751 0
-3749 -3752 0
-3749 -3753 0
-3749 -3754 0
-3749 -3755 0
-3749 -3756 0
-3749 -3757 0
-3749 -3758 0
-3749 -3759 0
-3749 -3760 0
-3749 -3761 0
-3750 -3751 0
-3750 -3752 0
-3750 -3753 0
-3750 -3754 0
-3750 -3755 0
-3750 -3756 0
-3750 -3757 0
-3750 -3758 0
-3750 -3759 0
-3750 -3760 0
-3750 -3761 0
-3751 -3752 0
-3751 -3753 0
-3751 -3754 0
-3751 -3755 0
-3751 -3756 0
-3751 -3757 0
-3751 -3758 0
-3751 -3759 0
-3751 -3760 0
-3751 -3761 0
-3752 -3753 0
-3752 -3754 0
-3752 -3755 0
-3752 -3756 0
-3752 -3757 0
-3752 -3758 0
-3752 -3759 0
-3752 -3760 0
-3752 -3761 0
-3753 -3754 0
-3753 -3755 0
-3753 -3756 0
-3753 -3757 0
-3753 -3758 0
-3753 -3759 0
-3753 -3760 0
-3753 -3761 0
-3754 -3755 0
-3754 -3756 0
-3754 -3757 0
-3754 -3758 0
-3754 -3759 0
-3754 -3760 0
-3754 -3761 0
-3755 -3756 0
-3755 -3757 0
-3755 -3758 0
-3755 -3759 0
-3755 -3760 0
-3755 -3761 0
-3756 -3757 0
-3756 -3758 0
-3756 -3759 0
-3756 -3760 0
-3756 -3761 0
-3757 -3758 0
-3757 -3759 0
-3757 -3760 0
-3757 -3761 0
-3758 -3759 0
-3758 -3760 0
-3758 -3761 0
-3759 -3760 0
-3759 -3761 0
-3760 -3761 0
